100
125 125
1 85 515
2 84 705
3 84 65
4 83 20
5 81 288
6 81 606
7 80 170
8 78 163
9 78 92
10 77 340
11 75 633
12 74 230
13 73 832
14 71 208
15 70 486
16 70 553
17 70 879
18 69 574
19 68 814
20 66 306
21 65 65
22 64 69
23 60 238
24 59 984
25 59 513
26 59 538
27 59 449
28 59 262
29 57 266
30 54 122
31 53 704
32 51 437
33 51 563
34 51 935
35 50 202
36 50 567
37 50 735
38 49 194
39 48 381
40 47 714
41 47 977
42 46 386
43 46 743
44 46 766
45 46 105
46 45 323
47 45 36
48 45 58
49 43 227
50 43 898
51 42 218
52 41 929
53 39 333
54 39 909
55 38 768
56 38 880
57 37 912
58 37 404
59 37 949
60 37 340
61 36 864
62 36 797
63 36 993
64 33 388
65 33 967
66 33 184
67 33 421
68 32 376
69 32 85
70 31 647
71 29 65
72 29 317
73 27 17
74 27 137
75 27 439
76 25 161
77 25 985
78 25 381
79 25 896
80 24 259
81 24 522
82 23 234
83 23 959
84 23 180
85 22 434
86 21 890
87 20 749
88 19 630
89 19 930
90 18 96
91 18 673
92 18 746
93 18 532
94 17 572
95 16 415
96 14 685
97 14 274
98 13 287
99 13 936
100 12 814
